NAME : berlin52.9100076.tour
COMMENT : Cost = 0_9100076
COMMENT : Found by LKH [Keld Helsgaun] Thu Nov 16 19:11:12 2017
TYPE : TOUR
DIMENSION : 56
TOUR_SECTION
1
38
48
24
5
15
6
4
43
33
10
9
8
41
19
45
55
23
30
2
7
42
21
31
53
20
50
16
29
47
26
28
27
13
14
52
11
51
12
25
46
44
54
35
34
37
40
39
36
56
22
18
17
3
32
49
-1
EOF
